\ Model Capacitated Facility Location Problem with Energy Consumption Constraints
\ LP format - for model browsing. Use MPS format to capture full model detail.
Minimize
  64866.07374844983 y[0] + 96427.93757511576 y[1] + 14356.07835634727 y[2]
   + 39.27626632674669 x[0,0] + 81.89809404861043 x[0,1]
   + 58.75216038365059 x[0,2] + 69.77408836070396 x[0,3]
   + 60.21409099303838 x[1,0] + 28.58469237924362 x[1,1]
   + 15.29027020010652 x[1,2] + 30.11745398081844 x[1,3]
   + 95.15874631650307 x[2,0] + 70.66060739321944 x[2,1]
   + 44.10925017896083 x[2,2] + 85.88607768215486 x[2,3]
Subject To
 demand_0: x[0,0] + x[1,0] + x[2,0] >= 1
 demand_1: x[0,1] + x[1,1] + x[2,1] >= 1
 demand_2: x[0,2] + x[1,2] + x[2,2] >= 1
 demand_3: x[0,3] + x[1,3] + x[2,3] >= 1
 capacity_0: - 1e+06 y[0] + x[0,0] + x[0,1] + x[0,2] + x[0,3] <= 0
 capacity_1: - 1e+06 y[1] + x[1,0] + x[1,1] + x[1,2] + x[1,3] <= 0
 capacity_2: - 1e+06 y[2] + x[2,0] + x[2,1] + x[2,2] + x[2,3] <= 0
 energy_limit_0: 8.398811577783434 x[0,0] + 8.398811577783434 x[0,1]
   + 8.398811577783434 x[0,2] + 8.398811577783434 x[0,3] <= 1e+06
 energy_limit_1: 7.306714791524798 x[1,0] + 7.306714791524798 x[1,1]
   + 7.306714791524798 x[1,2] + 7.306714791524798 x[1,3] <= 1e+06
 energy_limit_2: 3.532410264339027 x[2,0] + 3.532410264339027 x[2,1]
   + 3.532410264339027 x[2,2] + 3.532410264339027 x[2,3] <= 1e+06
 total_energy_budget: 8.398811577783434 x[0,0] + 8.398811577783434 x[0,1]
   + 8.398811577783434 x[0,2] + 8.398811577783434 x[0,3]
   + 7.306714791524798 x[1,0] + 7.306714791524798 x[1,1]
   + 7.306714791524798 x[1,2] + 7.306714791524798 x[1,3]
   + 3.532410264339027 x[2,0] + 3.532410264339027 x[2,1]
   + 3.532410264339027 x[2,2] + 3.532410264339027 x[2,3] <= 1e+06
Bounds
Binaries
 y[0] y[1] y[2]
End
